benchmarks_vrp/CMT4/tsp_classic/CMT4_7.vrp
NAME: CMT4_7
TYPE: CVRP
COMMENT: 1028.42 - Cluster Nr.7
DIMENSION: 15
CAPACITY: 200
EDGE_WEIGHT_TYPE: EUC_2D
NODE_COORD_TYPE: TWOD_COORDS
NODE_COORD_SECTION: 
14 37 52
7 41 49
5 42 57
1 25 55
12 35 35
15 37 56
6 37 47
3 31 62
2 30 60
11 27 43
13 31 52
9 24 58
4 26 52
8 38 46
10 30 48
DEPOT_SECTION: 
12
-1
DEMAND_SECTION: 
11 9
7 10
12 0
6 6
5 8
14 7
4 9
1 17
2 16
10 15
3 23
13 27
8 12
15 5
9 19
EOF
