benchmarks_vrp/CMT4/tsp_classic/CMT4_7.tour
NAME: CMT4_7 solution
TYPE: TOUR
TOUR_SECTION:
12 8 6 7 14 5 15 3 2 9 1 4 13 10 11 -1
-1
EOF